Solutions/MP-80.sol
# Solution for model Master Problem
# Objective value = 5.3221491848989945e+02
theta[1] 0
theta[2] 0
theta[3] 0
theta[4] 0
theta[5] 0
theta[6] 0
theta[7] 0
theta[8] 0
theta[9] 0
theta[10] 0
theta[11] 0
theta[12] 0
theta[13] 0
theta[14] 0
theta[15] 0
theta[16] 0
theta[17] 0
theta[18] 0
theta[19] 0
theta[20] 0
theta[21] 0
theta[22] 0
theta[23] 0
theta[24] 0
theta[25] 0
theta[26] 0
theta[27] 0
theta[28] 0
theta[29] 0.5
theta[30] 0
theta[31] 0
theta[32] 0
theta[33] 0
theta[34] 0
theta[35] 0
theta[36] 0
theta[37] 0.25
theta[38] 0
theta[39] 0
theta[40] 0
theta[41] 0
theta[42] 0
theta[43] 0.5
theta[44] 0
theta[45] 0
theta[46] 0
theta[47] 0
theta[48] 0
theta[49] 0
theta[50] 0.25
theta[51] 0
theta[52] 0
theta[53] 0
theta[54] 0
theta[55] 0
theta[56] 0
theta[57] 0
theta[58] 0
theta[59] 0
theta[60] 0.5
theta[61] 0
theta[62] 0
theta[63] 0
theta[64] 0
theta[65] 0
theta[66] 0
theta[67] 0
theta[68] 2.4999999999999994e-01
theta[69] 0.25
theta[70] 0
theta[71] 1
theta[72] 1
theta[73] 0.5
theta[74] 0.5
theta[75] 0
theta[76] 0
theta[77] 0
theta[78] 0.25
theta[79] 0
theta[80] 0
